# Solution for model micodag
# Objective value = 7.8257047528174848e+00
s_0_1 0
s_1_0 0
s_0_2 0
s_2_0 0
s_1_2 0.742788870358384
s_2_1 0
s_2_3 0
s_3_2 0
s_2_5 0
s_5_2 8.1670262759075518e-01
s_3_4 0
s_4_3 0
s_3_5 0
s_5_3 7.2065692475430776e-01
s_3_6 0
s_6_3 7.1499509209592338e-01
s_4_5 0
s_5_4 0
s_4_6 0
s_6_4 6.3220046392337848e-01
s_4_7 0
s_7_4 2.5063349341564356e-01
s_5_6 0
s_6_5 0
s_5_7 0
s_7_5 0.571091250772489
s_5_8 0
s_8_5 4.4033696845510795e-01
s_6_7 0
s_7_6 0
s_6_8 0
s_8_6 3.2294559637246616e+00
s_7_8 0
s_8_7 3.1645349528382027e-01
s_0_0 2.1289285011318704e+00
s_1_1 1.7823161173269397e+00
s_2_2 1.2306515833220333e+00
s_3_3 9.1113103256360928e-01
s_4_4 6.6693816300782638e-01
s_5_5 2.0890465620539866e+00
s_6_6 3.2294559637246616e+00
s_7_7 9.3445410630132386e-01
s_8_8 9.7585066350047667e-01
Gamma_0_0 1.4590848162913184e+00
Gamma_0_1 0
Gamma_0_2 0
Gamma_0_3 0
Gamma_0_4 0
Gamma_0_5 0
Gamma_0_6 0
Gamma_0_7 0
Gamma_0_8 0
Gamma_1_0 0
Gamma_1_1 1.3350341259035066e+00
Gamma_1_2 8.6185200026360920e-01
Gamma_1_3 0
Gamma_1_4 0
Gamma_1_5 0
Gamma_1_6 0
Gamma_1_7 0
Gamma_1_8 0
Gamma_2_0 0
Gamma_2_1 0
Gamma_2_2 1.1093473681953878e+00
Gamma_2_3 0
Gamma_2_4 0
Gamma_2_5 0
Gamma_2_6 0
Gamma_2_7 0
Gamma_2_8 0
Gamma_3_0 0
Gamma_3_1 0
Gamma_3_2 0
Gamma_3_3 9.5453183947085263e-01
Gamma_3_4 0
Gamma_3_5 0
Gamma_3_6 0
Gamma_3_7 0
Gamma_3_8 0
Gamma_4_0 0
Gamma_4_1 0
Gamma_4_2 0
Gamma_4_3 0
Gamma_4_4 8.1666282088009023e-01
Gamma_4_5 0
Gamma_4_6 0
Gamma_4_7 0
Gamma_4_8 0
Gamma_5_0 0
Gamma_5_1 0
Gamma_5_2 -9.0371601047605421e-01
Gamma_5_3 -8.4891514579156147e-01
Gamma_5_4 0
Gamma_5_5 1.4453534384551021e+00
Gamma_5_6 0
Gamma_5_7 0
Gamma_5_8 0
Gamma_6_0 0
Gamma_6_1 0
Gamma_6_2 0
Gamma_6_3 -8.4557382415488946e-01
Gamma_6_4 7.9511034701063921e-01
Gamma_6_5 0
Gamma_6_6 1.0013757172942936e+00
Gamma_6_7 0
Gamma_6_8 0
Gamma_7_0 0
Gamma_7_1 0
Gamma_7_2 0
Gamma_7_3 0
Gamma_7_4 5.0063309260939171e-01
Gamma_7_5 7.5570579643965219e-01
Gamma_7_6 0
Gamma_7_7 9.6667166416592787e-01
Gamma_7_8 0
Gamma_8_0 0
Gamma_8_1 0
Gamma_8_2 0
Gamma_8_3 0
Gamma_8_4 0
Gamma_8_5 -6.6357890898905780e-01
Gamma_8_6 7.9144707355574762e-01
Gamma_8_7 5.6254199424027052e-01
Gamma_8_8 9.8785153920033819e-01
psi_0 0
psi_1 0
psi_2 3
psi_3 3
psi_4 2
psi_5 2
psi_6 1
psi_7 1
psi_8 0
g_0_0 0
g_0_1 0
g_0_2 0
g_0_3 0
g_0_4 0
g_0_5 0
g_0_6 0
g_0_7 0
g_0_8 0
g_1_0 0
g_1_1 0
g_1_2 1
g_1_3 0
g_1_4 0
g_1_5 0
g_1_6 0
g_1_7 0
g_1_8 0
g_2_0 0
g_2_1 0
g_2_2 0
g_2_3 0
g_2_4 0
g_2_5 0
g_2_6 0
g_2_7 0
g_2_8 0
g_3_0 0
g_3_1 0
g_3_2 0
g_3_3 0
g_3_4 0
g_3_5 0
g_3_6 0
g_3_7 0
g_3_8 0
g_4_0 0
g_4_1 0
g_4_2 0
g_4_3 0
g_4_4 0
g_4_5 0
g_4_6 0
g_4_7 0
g_4_8 0
g_5_0 0
g_5_1 0
g_5_2 1
g_5_3 1
g_5_4 0
g_5_5 0
g_5_6 0
g_5_7 0
g_5_8 0
g_6_0 0
g_6_1 0
g_6_2 0
g_6_3 1
g_6_4 1
g_6_5 0
g_6_6 0
g_6_7 0
g_6_8 0
g_7_0 0
g_7_1 0
g_7_2 0
g_7_3 0
g_7_4 1
g_7_5 1
g_7_6 0
g_7_7 0
g_7_8 0
g_8_0 0
g_8_1 0
g_8_2 0
g_8_3 0
g_8_4 0
g_8_5 1
g_8_6 1
g_8_7 1
g_8_8 0
T_0 -7.5561880203687792e-01
T_1 -0.577913708000068
T_2 -2.0754377165852134e-01
T_3 9.3068558296209858e-02
T_4 0.405057946497962
T_5 -7.3670777148542754e-01
T_6 -2.7495437245050880e-03
T_7 6.7792763724440874e-02
T_8 2.4445712984601187e-02
